polonium
&INPUTPH
    prefix = 'polonium'
    outdir = 'work'

    fildyn = 'dfpt.dyn'
    fildvscf = 'dvscf'

    ldisp = .true.
    nq1 = 2
    nq2 = 2
    nq3 = 2

    tr2_ph = 1e-12
/
