&CONTROL
    prefix = 'polonium'
    outdir = 'work'
    pseudo_dir = '.'

    calculation = 'bands'
/
&SYSTEM
    ibrav = 1
    ntyp = 1
    nat = 1

    a = 3.36

    ecutwfc = 30.0

    occupations = 'smearing'
    degauss = 0.1
/
&ELECTRONS
    conv_thr = 1e-10
/

ATOMIC_SPECIES
Po 209.0 Po.upf

ATOMIC_POSITIONS crystal
Po 0.0 0.0 0.0

K_POINTS crystal
64
0.00 0.00 0.00 0.015625
0.00 0.00 0.25 0.015625
0.00 0.00 0.50 0.015625
0.00 0.00 0.75 0.015625
0.00 0.25 0.00 0.015625
0.00 0.25 0.25 0.015625
0.00 0.25 0.50 0.015625
0.00 0.25 0.75 0.015625
0.00 0.50 0.00 0.015625
0.00 0.50 0.25 0.015625
0.00 0.50 0.50 0.015625
0.00 0.50 0.75 0.015625
0.00 0.75 0.00 0.015625
0.00 0.75 0.25 0.015625
0.00 0.75 0.50 0.015625
0.00 0.75 0.75 0.015625
0.25 0.00 0.00 0.015625
0.25 0.00 0.25 0.015625
0.25 0.00 0.50 0.015625
0.25 0.00 0.75 0.015625
0.25 0.25 0.00 0.015625
0.25 0.25 0.25 0.015625
0.25 0.25 0.50 0.015625
0.25 0.25 0.75 0.015625
0.25 0.50 0.00 0.015625
0.25 0.50 0.25 0.015625
0.25 0.50 0.50 0.015625
0.25 0.50 0.75 0.015625
0.25 0.75 0.00 0.015625
0.25 0.75 0.25 0.015625
0.25 0.75 0.50 0.015625
0.25 0.75 0.75 0.015625
0.50 0.00 0.00 0.015625
0.50 0.00 0.25 0.015625
0.50 0.00 0.50 0.015625
0.50 0.00 0.75 0.015625
0.50 0.25 0.00 0.015625
0.50 0.25 0.25 0.015625
0.50 0.25 0.50 0.015625
0.50 0.25 0.75 0.015625
0.50 0.50 0.00 0.015625
0.50 0.50 0.25 0.015625
0.50 0.50 0.50 0.015625
0.50 0.50 0.75 0.015625
0.50 0.75 0.00 0.015625
0.50 0.75 0.25 0.015625
0.50 0.75 0.50 0.015625
0.50 0.75 0.75 0.015625
0.75 0.00 0.00 0.015625
0.75 0.00 0.25 0.015625
0.75 0.00 0.50 0.015625
0.75 0.00 0.75 0.015625
0.75 0.25 0.00 0.015625
0.75 0.25 0.25 0.015625
0.75 0.25 0.50 0.015625
0.75 0.25 0.75 0.015625
0.75 0.50 0.00 0.015625
0.75 0.50 0.25 0.015625
0.75 0.50 0.50 0.015625
0.75 0.50 0.75 0.015625
0.75 0.75 0.00 0.015625
0.75 0.75 0.25 0.015625
0.75 0.75 0.50 0.015625
0.75 0.75 0.75 0.015625
