&INPUT
    fildyn = 'dfpt.dyn'
    flfrc = 'dfpt.ifc'
/
