&INPUT
    fildyn = 'cdfpt.dyn'
    flfrc = 'cdfpt.ifc'
/
