TaS2
&INPUTPH
  prefix = 'TaS2'
  outdir = 'work'

  fildyn = 'dyn'
fildvscf = 'dvscf'

   ldisp = .true.
     nq1 = 2
     nq2 = 2
     nq3 = 1

  tr2_ph = 1e-12
/
