&CONTROL
     prefix = 'TaS2'
     outdir = 'work'
 pseudo_dir = '.'

calculation = 'scf'
/
&SYSTEM
      ibrav = 4
       ntyp = 2
        nat = 3

          a = 3.37
          c = 10.0

    ecutwfc = 10.0

occupations = 'smearing'
    degauss = 0.02
/
&ELECTRONS
   conv_thr = 1e-12
/

ATOMIC_SPECIES
Ta 180.95 Ta.pbe-hgh.UPF
S   32.06  S.pbe-hgh.UPF

ATOMIC_POSITIONS crystal
S   0.333333333  0.666666667  0.160998168
Ta  0.000000000  0.000000000  0.000000000
S   0.333333333  0.666666667 -0.160998168

K_POINTS automatic
4 4 1 0 0 0
