&INPUT
    fildyn = 'dyn'
    flfrc = 'ifc'
/
