&CONTROL
outdir = 'work'
prefix = 'Be'

calculation = 'nscf'

pseudo_dir = '.'
/
&SYSTEM
ibrav = 4
ntyp = 1
nat = 1

a = 2.07
c = 10.0

ecutwfc = 50.0

nbnd = 10

occupations = 'smearing'
degauss = 0.01
/
&ELECTRONS
conv_thr = 1e-7
/

ATOMIC_SPECIES
Be 9.012 Be.pz-hgh.UPF

ATOMIC_POSITIONS crystal
Be 0.0 0.0 0.0 0 0 0

K_POINTS crystal
36
0.000000000 0.000000000 0.0 0.027777778
0.000000000 0.166666667 0.0 0.027777778
0.000000000 0.333333333 0.0 0.027777778
0.000000000 0.500000000 0.0 0.027777778
0.000000000 0.666666667 0.0 0.027777778
0.000000000 0.833333333 0.0 0.027777778
0.166666667 0.000000000 0.0 0.027777778
0.166666667 0.166666667 0.0 0.027777778
0.166666667 0.333333333 0.0 0.027777778
0.166666667 0.500000000 0.0 0.027777778
0.166666667 0.666666667 0.0 0.027777778
0.166666667 0.833333333 0.0 0.027777778
0.333333333 0.000000000 0.0 0.027777778
0.333333333 0.166666667 0.0 0.027777778
0.333333333 0.333333333 0.0 0.027777778
0.333333333 0.500000000 0.0 0.027777778
0.333333333 0.666666667 0.0 0.027777778
0.333333333 0.833333333 0.0 0.027777778
0.500000000 0.000000000 0.0 0.027777778
0.500000000 0.166666667 0.0 0.027777778
0.500000000 0.333333333 0.0 0.027777778
0.500000000 0.500000000 0.0 0.027777778
0.500000000 0.666666667 0.0 0.027777778
0.500000000 0.833333333 0.0 0.027777778
0.666666667 0.000000000 0.0 0.027777778
0.666666667 0.166666667 0.0 0.027777778
0.666666667 0.333333333 0.0 0.027777778
0.666666667 0.500000000 0.0 0.027777778
0.666666667 0.666666667 0.0 0.027777778
0.666666667 0.833333333 0.0 0.027777778
0.833333333 0.000000000 0.0 0.027777778
0.833333333 0.166666667 0.0 0.027777778
0.833333333 0.333333333 0.0 0.027777778
0.833333333 0.500000000 0.0 0.027777778
0.833333333 0.666666667 0.0 0.027777778
0.833333333 0.833333333 0.0 0.027777778
