&CONTROL
   calculation = 'scf'
   outdir = 'work'
   prefix = 'TMDC'
 pseudo_dir = '../../../pp'
/
&SYSTEM
         ibrav = 4
          ntyp = 2
           nat = 27

             a = 10.4326254869191
             c = 15

       ecutwfc = 100

	occupations='smearing'
	smearing='fermi-dirac'
	degauss=0.05
/
&ELECTRONS
	conv_thr=1e-15
/
ATOMIC_SPECIES
Nb 92.90638 Nb.upf
Se  78.96   Se.upf

ATOMIC_POSITIONS (crystal)
Se       0.110939326   0.221882986   0.110406987
Nb      -0.002364103  -0.004752752  -0.000000969
Se       0.110939240   0.221882131  -0.110412111
Se       0.110937782   0.555722597   0.110406601
Nb      -0.004253507   0.331205763  -0.000002295
Se       0.110938056   0.555724841  -0.110411805
Se       0.112160115  -0.110585504   0.112479932
Nb      -0.002360722   0.669061105   0.000000754
Se       0.112161854  -0.110583961  -0.112476980
Se       0.445024170   0.221640688   0.112688257
Nb       0.333539993   0.000101856   0.000002519
Se       0.445026672   0.221637886  -0.112685715
Se       0.444777099   0.555720084   0.110399463
Nb       0.335455042   0.331188175  -0.000002958
Se       0.444781233   0.555722311  -0.110404746
Se       0.445024604  -0.109951589   0.112688447
Nb       0.335454410   0.670930523  -0.000002092
Se       0.445026163  -0.109946636  -0.112685387
Se       0.776619556   0.221643188   0.112686375
Nb       0.666556908   0.000104508   0.000001956
Se       0.776615166   0.221641486  -0.112683808
Se       0.777255966   0.554508565   0.112472825
Nb       0.666556814   0.333119078   0.000002299
Se       0.777256176   0.554506504  -0.112469835
Se       0.777256243  -0.110584708   0.112473366
Nb       0.671422172   0.669046238   0.000000242
Se       0.777253588  -0.110585323  -0.112471320



K_POINTS (automatic)
8 8 1 0 0 0
