graphene
&INPUTPH
    prefix = 'graphene'
    outdir = 'work'

    fildyn = 'cdfpt.dyn'
    fildvscf = 'dvscf'

    ldisp = .true.
    nq1 = 2
    nq2 = 2
    nq3 = 1

    tr2_ph = 1e-12

    cdfpt_orb = 2,6
/
