&PROJWFC
    prefix = 'graphene'
    outdir = 'work'
/
