&INPUT
    fildyn = 'dfpt.dyn'
    flfrc = 'dfpt.ifc'

    loto_2d = .false.
/
