TaS2
&INPUTPH
    prefix = 'TaS2'
    outdir = 'work'

    fildyn = 'dyn'
    fildvscf = 'dvscf'

    bare = .true.
    ldisp = .true.
    nq1 = 4
    nq2 = 4
    nq3 = 1

    tr2_ph = 1e-12
/
