&CONTROL
    prefix = 'TaS2'
    outdir = 'work'
    pseudo_dir = '.'

    calculation = 'scf'
/
&SYSTEM
    ibrav = 4
    ntyp = 2
    nat = 3

    a = 3.34
    c = 15.0

    assume_isolated = '2D'

    ecutwfc = 30.0

    occupations = 'smearing'
    smearing = 'marzari-vanderbilt'
    degauss = 0.02
/
&ELECTRONS
    conv_thr = 1e-12
    diago_full_acc = .true.
/

ATOMIC_SPECIES
Ta 180.95 Ta.upf
S   32.06  S.upf

ATOMIC_POSITIONS crystal
S   0.3333333333  0.6666666667  0.1041893571
Ta  0.0000000000  0.0000000000  0.0000000000
S   0.3333333333  0.6666666667 -0.1041893571

K_POINTS automatic
4 4 1 0 0 0
