&CONTROL
    prefix = 'C'
    outdir = 'work'
    pseudo_dir = '.'

    calculation = 'nscf'
/
&SYSTEM
    ibrav = 6
    ntyp = 1
    nat = 1

    a = 7.0
    c = 1.28

    ecutwfc = 30.0

    occupations = 'smearing'
    degauss = 0.02

    nbnd = 4
/
&ELECTRONS
    conv_thr = 1e-10
    diago_full_acc = .true.
/

ATOMIC_SPECIES
C 12.0 C.upf

ATOMIC_POSITIONS crystal
C 0.5 0.5 0.5

K_POINTS crystal
10
0.0 0.0 0.0 0.1
0.0 0.0 0.1 0.1
0.0 0.0 0.2 0.1
0.0 0.0 0.3 0.1
0.0 0.0 0.4 0.1
0.0 0.0 0.5 0.1
0.0 0.0 0.6 0.1
0.0 0.0 0.7 0.1
0.0 0.0 0.8 0.1
0.0 0.0 0.9 0.1
