C
&INPUTPH
    prefix = 'C'
    outdir = 'work'

    fildyn = 'dyn.xml'
    fildvscf = 'dvscf'

    ldisp = .true.
    nq1 = 1
    nq2 = 1
    nq3 = 5

    tr2_ph = 1e-12
/
