&CONTROL
    prefix = 'C'
    outdir = 'work'
    pseudo_dir = '.'

    calculation = 'bands'
/
&SYSTEM
    ibrav = 6
    ntyp = 1
    nat = 1

    a = 7.0
    c = 1.28

    ecutwfc = 30.0

    occupations = 'smearing'
    degauss = 0.02
/
&ELECTRONS
    conv_thr = 1e-10
    diago_full_acc = .true.
/

ATOMIC_SPECIES
C 12.0 C.upf

ATOMIC_POSITIONS crystal
C 0.5 0.5 0.5

K_POINTS crystal_b
2
0.0 0.0 0.0 50
0.0 0.0 0.5 0
