&PROJWFC
    prefix = 'C'
    outdir = 'work'
/
