&INPUTPP
    prefix = 'C'
    outdir = 'work'
    seedname = 'C'
/
