&INPUTPP
    prefix = 'graphene'
    outdir = 'work'
    seedname = 'graphene'
    write_unk = .true.
/
