&CONTROL
    prefix = 'graphene'
    outdir = 'work'
    pseudo_dir = '.'
/
&SYSTEM
    ibrav = 4
    ntyp = 1
    nat = 2

    a = 2.46
    c = 7.0

    ecutwfc = 30.0

    occupations = 'smearing'
    degauss = 0.01
/
&ELECTRONS
    conv_thr = 1e-12
/

ATOMIC_SPECIES
C 12.0 C.upf

ATOMIC_POSITIONS crystal
C 0.333333333 0.666666667 0.0
C 0.666666667 0.333333333 0.0

K_POINTS automatic
6 6 1 0 0 0
