&INPUTPP
    prefix = 'TaS2'
    outdir = 'work'
    seedname = 'ws_yes'
/
