MoS2
&INPUTPH
    prefix = 'MoS2'
    outdir = 'work'

    fildyn = 'dyn'
    fildvscf = 'dvscf'

    ldisp = .true.
    nq1 = 3
    nq2 = 3
    nq3 = 1

    tr2_ph = 1e-12
/
