&CONTROL
    prefix = 'MoS2'
    outdir = 'work'
    pseudo_dir = '.'
/
&SYSTEM
    ibrav = 4
    ntyp = 2
    nat = 3

    a = 3.19
    c = 11.0

    ecutwfc = 15.0

    assume_isolated = '2D'
/
&ELECTRONS
    conv_thr = 1e-12
/

ATOMIC_SPECIES
Mo 95.95 Mo.upf
S  32.06  S.upf

ATOMIC_POSITIONS crystal
Mo  0.3333333333  0.6666666667  0.0000000000
S   0.6666666667  0.3333333333 -0.1370722907
S   0.6666666667  0.3333333333  0.1370722907

K_POINTS automatic
3 3 1 0 0 0
