&INPUT
    fildyn = 'dyn'
    flfrc = 'ifc'

    loto_2d = .true.
/
