&PROJWFC
    prefix = 'polonium'
    outdir = 'work'
/
