&CONTROL
    prefix = 'graphene'
    outdir = 'work'
    pseudo_dir = '.'

    calculation = 'nscf'
/
&SYSTEM
    ibrav = 4
    ntyp = 1
    nat = 2

    a = 2.46
    c = 7.0

    ecutwfc = 30.0

    occupations = 'smearing'
    degauss = 0.01

    nbnd = 10
/
&ELECTRONS
    conv_thr = 1e-10
/

ATOMIC_SPECIES
C 12.0 C.upf

ATOMIC_POSITIONS crystal
C 0.333333333 0.666666667 0.0
C 0.666666667 0.333333333 0.0

K_POINTS crystal
36
0.000000000 0.000000000 0.0 0.027777778
0.000000000 0.166666667 0.0 0.027777778
0.000000000 0.333333333 0.0 0.027777778
0.000000000 0.500000000 0.0 0.027777778
0.000000000 0.666666667 0.0 0.027777778
0.000000000 0.833333333 0.0 0.027777778
0.166666667 0.000000000 0.0 0.027777778
0.166666667 0.166666667 0.0 0.027777778
0.166666667 0.333333333 0.0 0.027777778
0.166666667 0.500000000 0.0 0.027777778
0.166666667 0.666666667 0.0 0.027777778
0.166666667 0.833333333 0.0 0.027777778
0.333333333 0.000000000 0.0 0.027777778
0.333333333 0.166666667 0.0 0.027777778
0.333333333 0.333333333 0.0 0.027777778
0.333333333 0.500000000 0.0 0.027777778
0.333333333 0.666666667 0.0 0.027777778
0.333333333 0.833333333 0.0 0.027777778
0.500000000 0.000000000 0.0 0.027777778
0.500000000 0.166666667 0.0 0.027777778
0.500000000 0.333333333 0.0 0.027777778
0.500000000 0.500000000 0.0 0.027777778
0.500000000 0.666666667 0.0 0.027777778
0.500000000 0.833333333 0.0 0.027777778
0.666666667 0.000000000 0.0 0.027777778
0.666666667 0.166666667 0.0 0.027777778
0.666666667 0.333333333 0.0 0.027777778
0.666666667 0.500000000 0.0 0.027777778
0.666666667 0.666666667 0.0 0.027777778
0.666666667 0.833333333 0.0 0.027777778
0.833333333 0.000000000 0.0 0.027777778
0.833333333 0.166666667 0.0 0.027777778
0.833333333 0.333333333 0.0 0.027777778
0.833333333 0.500000000 0.0 0.027777778
0.833333333 0.666666667 0.0 0.027777778
0.833333333 0.833333333 0.0 0.027777778
