&PROJWFC
    prefix = 'TaS2'
    outdir = 'work'
/
