&INPUTPP
    prefix = 'graphene'
    outdir = 'work'
    seedname = 'graphene'
/
