&BANDS
outdir = 'work'
prefix = 'Be'

filband = 'bands.dat'

lsym = .false.
/
