&INPUTPP
outdir = 'work'
prefix = 'Be'

seedname = 'Be'
/
