&CONTROL
outdir = 'work'
prefix = 'Be'

pseudo_dir = '.'
/
&SYSTEM
ibrav = 4
ntyp = 1
nat = 1

a = 2.07
c = 10.0

ecutwfc = 50.0

nbnd = 10

occupations = 'smearing'
degauss = 0.01
/
&ELECTRONS
conv_thr = 1e-7
/

ATOMIC_SPECIES
Be 9.012 Be.pz-hgh.UPF

ATOMIC_POSITIONS crystal
Be 0.0 0.0 0.0 0 0 0

K_POINTS automatic
12 12 1 0 0 0
