TaS2
&INPUTPH
outdir = 'work'
prefix = 'TaS2'

fildyn = 'dyn'
fildvscf = 'dvscf'

ldisp = .true.
nq1 = 2
nq2 = 2
nq3 = 1

cdfpt = .false.
subspace = 'sub.dat'

tr2_ph = 1e-12
/
