&CONTROL
    prefix = 'TaS2'
    outdir = 'work'
    pseudo_dir = '.'

    calculation = 'nscf'
/
&SYSTEM
    ibrav = 4
    ntyp = 2
    nat = 3

    a = 3.37
    c = 10.0

    ecutwfc = 10.0

    occupations = 'smearing'
    smearing = 'fermi-dirac'
    degauss = 0.005
/
&ELECTRONS
    conv_thr = 1e-10
    diago_full_acc = .true.
/

ATOMIC_SPECIES
Ta 180.95 Ta.pbe-hgh.UPF
S   32.06  S.pbe-hgh.UPF

ATOMIC_POSITIONS crystal
S   0.333333333  0.666666667  0.160998168
Ta  0.000000000  0.000000000  0.000000000
S   0.333333333  0.666666667 -0.160998168

K_POINTS crystal
16
0.00 0.00 0.00 0.0625
0.00 0.25 0.00 0.0625
0.00 0.50 0.00 0.0625
0.00 0.75 0.00 0.0625
0.25 0.00 0.00 0.0625
0.25 0.25 0.00 0.0625
0.25 0.50 0.00 0.0625
0.25 0.75 0.00 0.0625
0.50 0.00 0.00 0.0625
0.50 0.25 0.00 0.0625
0.50 0.50 0.00 0.0625
0.50 0.75 0.00 0.0625
0.75 0.00 0.00 0.0625
0.75 0.25 0.00 0.0625
0.75 0.50 0.00 0.0625
0.75 0.75 0.00 0.0625
