&INPUT
    fildyn = 'cdfpt.dyn'
    flfrc = 'cdfpt.ifc'

    loto_2d = .true.
/
