&INPUTPP
outdir = 'work'
prefix = 'TaS2'
seedname = 'TaS2'
/
