&CONTROL
outdir = 'work'
prefix = 'TaS2'
pseudo_dir = '.'

calculation = 'nscf'
/
&SYSTEM
ibrav = 4
ntyp = 2
nat = 3

a = 3.39
c = 15.0

ecutwfc = 50.0

occupations = 'smearing'
smearing = 'fermi-dirac'
degauss = 0.02
/
&ELECTRONS
conv_thr = 1e-7
/

ATOMIC_SPECIES
Ta 180.95 Ta.pbe-hgh.UPF
S   32.06  S.pbe-hgh.UPF

ATOMIC_POSITIONS crystal
S   0.333333333  0.666666667  0.105825996  0 0 1
Ta  0.000000000  0.000000000  0.000000000  0 0 0
S   0.333333333  0.666666667 -0.105825996  0 0 1

K_POINTS crystal
36
0.000000000 0.000000000 0.0 0.027777778
0.000000000 0.166666667 0.0 0.027777778
0.000000000 0.333333333 0.0 0.027777778
0.000000000 0.500000000 0.0 0.027777778
0.000000000 0.666666667 0.0 0.027777778
0.000000000 0.833333333 0.0 0.027777778
0.166666667 0.000000000 0.0 0.027777778
0.166666667 0.166666667 0.0 0.027777778
0.166666667 0.333333333 0.0 0.027777778
0.166666667 0.500000000 0.0 0.027777778
0.166666667 0.666666667 0.0 0.027777778
0.166666667 0.833333333 0.0 0.027777778
0.333333333 0.000000000 0.0 0.027777778
0.333333333 0.166666667 0.0 0.027777778
0.333333333 0.333333333 0.0 0.027777778
0.333333333 0.500000000 0.0 0.027777778
0.333333333 0.666666667 0.0 0.027777778
0.333333333 0.833333333 0.0 0.027777778
0.500000000 0.000000000 0.0 0.027777778
0.500000000 0.166666667 0.0 0.027777778
0.500000000 0.333333333 0.0 0.027777778
0.500000000 0.500000000 0.0 0.027777778
0.500000000 0.666666667 0.0 0.027777778
0.500000000 0.833333333 0.0 0.027777778
0.666666667 0.000000000 0.0 0.027777778
0.666666667 0.166666667 0.0 0.027777778
0.666666667 0.333333333 0.0 0.027777778
0.666666667 0.500000000 0.0 0.027777778
0.666666667 0.666666667 0.0 0.027777778
0.666666667 0.833333333 0.0 0.027777778
0.833333333 0.000000000 0.0 0.027777778
0.833333333 0.166666667 0.0 0.027777778
0.833333333 0.333333333 0.0 0.027777778
0.833333333 0.500000000 0.0 0.027777778
0.833333333 0.666666667 0.0 0.027777778
0.833333333 0.833333333 0.0 0.027777778
