&BANDS
outdir = 'work'
prefix = 'TaS2'

filband = 'bands.dat'

lsym = .false.
/
